903,913
606,616
680,690
971,981
767,777
303,313
100,110
503,513
883,893
829,839
616,626
734,744
382,392
595,605
401,411
720,730
452,462
138,148
260,270
760,770
404,414
627,637
211,221
376,386
428,438
551,561
447,457
158,168
616,626
595,605
22,32
68,78
883,893
621,631
308,318
130,140
666,676
237,247
23,33
870,880
746,756
967,977
785,795
37,47
147,157
387,397
355,365
551,561
828,838
683,693

1443
1062
1172
1391
1461
1331
1360
1403
1023
